Maximize

27.5 b0 + 22.5 b1 + 45.5 b2 + 41.0 b3 + 8 b4 + 10 b5 + 38.0 b6 + 41.0 b7 + 8 b8 + 10 b9 + 53.5 b10 + 20.5 b11 + 51.5 b12.v0 + 53.5 b12.v1 + 20.5 b13 + 36.0 b14.v0 + 36.0 b14.v1 + 6 b15 + 6 b16 + 18.5 b17 + 8 b18 + 10 b19 + 53.5 b20 + 6 b21.v0 + 6 b21.v1 + 171.0 b22 + 45.0 b23 + 143.0 b24.v0 + 143.0 b24.v1 + 31 b25 + 12 b26.v0 + 10 b26.v1 + 28.5 b27 + 48.5 b28.v0 + 48.5 b28.v1 + 7 b29.v0 + 7 b29.v1 + 166.0 b30 + 45.0 b31 + 249.0 b32.v0 + 249.0 b32.v1 + 38.0 b33 + 73.5 b34.v0 + 71.5 b34.v1 + 31 b35 + 12 b36.v0 + 10 b36.v1 + 28.5 b37 + 262.0 b38.v0 + 262.0 b38.v1 + 20.5 b39 + 22.5 b40 + 56.5 b41 + 6 b42 + 292.0 b43 + 8 b44 + 10 b45 + 18.5 b46.v0 + 18.5 b46.v1 + 8 b47 + 10 b48 + 33.0 b49 + 16.5 b50 + 12.5 x21_0.m + 12.5 x22_0.m + 12.5 x22_1.m + 12.5 x22_2.m + 12.5 x22_3.m + 12.5 x22_4.m + 12.5 x22_5.m + 12.5 x22_6.m + 12.5 x23_0.m + 12.5 x24_0.m + 12.5 x24_1.m + 12.5 x24_2.m + 12.5 x24_3.m + 12.5 x25_0.m + 12.5 x25_1.m + 12.5 x26_0.m + 12.5 x30_0.m + 12.5 x30_1.m + 12.5 x30_2.m + 12.5 x30_3.m + 12.5 x30_4.m + 12.5 x30_5.m + 12.5 x30_6.m + 12.5 x31_0.m + 12.5 x32_0.m + 12.5 x32_1.m + 12.5 x32_2.m + 12.5 x32_3.m + 12.5 x32_4.m + 12.5 x34_0.m + 12.5 x35_0.m + 12.5 x35_1.m + 12.5 x36_0.m + 12.5 x37_0.m + 12.5 dr21_0.m + 12.5 dr22_0.m + 12.5 dr22_1.m + 12.5 dr22_2.m + 12.5 dr22_3.m + 12.5 dr22_4.m + 12.5 dr22_5.m + 12.5 dr22_6.m + 12.5 dr22_7.m + 12.5 dr22_8.m + 12.5 dr22_9.m + 12.5 dr22_10.m + 12.5 dr22_11.m + 12.5 dr22_12.m + 12.5 dr22_13.m + 12.5 dr22_14.m + 12.5 dr22_15.m + 12.5 dr22_16.m + 12.5 dr22_17.m + 12.5 dr22_18.m + 12.5 dr22_19.m + 12.5 dr22_20.m + 12.5 dr23_0.m + 12.5 dr23_1.m + 12.5 dr24_0.m + 12.5 dr24_1.m + 12.5 dr24_2.m + 12.5 dr24_3.m + 12.5 dr24_4.m + 12.5 dr24_5.m + 12.5 dr24_6.m + 12.5 dr24_7.m + 12.5 dr24_8.m + 12.5 dr25_0.m + 12.5 dr25_1.m + 12.5 dr25_2.m + 12.5 dr25_3.m + 12.5 dr25_4.m + 12.5 dr25_5.m + 12.5 dr25_6.m + 12.5 dr26_0.m + 12.5 dr27_0.m + 12.5 dr29_0.m + 12.5 dr30_0.m + 12.5 dr30_1.m + 12.5 dr30_2.m + 12.5 dr30_3.m + 12.5 dr30_4.m + 12.5 dr30_5.m + 12.5 dr30_6.m + 12.5 dr30_7.m + 12.5 dr30_8.m + 12.5 dr30_9.m + 12.5 dr30_10.m + 12.5 dr30_11.m + 12.5 dr30_12.m + 12.5 dr30_13.m + 12.5 dr30_14.m + 12.5 dr30_15.m + 12.5 dr30_16.m + 12.5 dr30_17.m + 12.5 dr30_18.m + 12.5 dr30_19.m + 12.5 dr31_0.m + 12.5 dr31_1.m + 12.5 dr32_0.m + 12.5 dr32_1.m + 12.5 dr32_2.m + 12.5 dr32_3.m + 12.5 dr32_4.m + 12.5 dr32_5.m + 12.5 dr32_6.m + 12.5 dr32_7.m + 12.5 dr32_8.m + 12.5 dr32_9.m + 12.5 dr33_0.m + 12.5 dr34_0.m + 12.5 dr34_1.m + 12.5 dr34_2.m + 12.5 dr35_0.m + 12.5 dr35_1.m + 12.5 dr35_2.m + 12.5 dr35_3.m + 12.5 dr35_4.m + 12.5 dr35_5.m + 12.5 dr35_6.m + 12.5 dr36_0.m + 12.5 dr37_0.m


Subject to

\ === tcfg constraints ===
dSta_0 = 1
b0 - dSta_0 = 0
b0 - d0_1 = 0
b1 - d0_1 = 0
b1 - d1_2 = 0
b2 - d1_2 = 0
b2 - d2_6 - d2_3 = 0
b3 - d2_3 = 0
b3 - d3_4 = 0
b4 - d3_4 = 0
b4 - d4_5 = 0
b5 - d4_5 = 0
b6 - d2_6 = 0
b6 - d6_10 - d6_7 = 0
b7 - d6_7 = 0
b7 - d7_8 = 0
b8 - d7_8 = 0
b8 - d8_9 = 0
b9 - d8_9 = 0
b10 - d6_10 = 0
b10 - d10_50 - d10_11 = 0
b11 - d10_11 = 0
b11 - d11_12 = 0
b12 - d50_12 - d11_12 = 0
b12 - d12_49 - d12_13 = 0
b13 - d12_13 = 0
b13 - d13_14 = 0
b14 - d49_14 - d13_14 = 0
b14 - d14_41 - d14_15 = 0
b15 - d14_15 = 0
b15 - d15_20 - d15_16 = 0
b16 - d15_16 = 0
b16 - d16_17 = 0
b17 - d16_17 = 0
b17 - d17_18 = 0
b18 - d17_18 = 0
b18 - d18_19 = 0
b19 - d18_19 = 0
b20 - d15_20 = 0
b20 - d20_28 - d20_21 = 0
b21 - d20_21 - d27_21 = 0
b21 - d21_22 = 0
b22 - d21_22 = 0
b22 - d22_24 - d22_23 = 0
b23 - d22_23 = 0
b23 - d23_24 = 0
b24 - d22_24 - d23_24 = 0
b24 - d24_26 - d24_25 = 0
b25 - d24_25 = 0
b25 - d25_26 = 0
b26 - d24_26 - d25_26 = 0
b26 - d26_27 = 0
b27 - d26_27 = 0
b27 - d27_21 - d27_28 = 0
b28 - d20_28 - d27_28 = 0
b28 - d28_38 - d28_29 = 0
b29 - d28_29 - d37_29 = 0
b29 - d29_30 = 0
b30 - d29_30 = 0
b30 - d30_32 - d30_31 = 0
b31 - d30_31 = 0
b31 - d31_32 = 0
b32 - d30_32 - d31_32 = 0
b32 - d32_34 - d32_33 = 0
b33 - d32_33 = 0
b33 - d33_34 = 0
b34 - d32_34 - d33_34 = 0
b34 - d34_36 - d34_35 = 0
b35 - d34_35 = 0
b35 - d35_36 = 0
b36 - d34_36 - d35_36 = 0
b36 - d36_37 = 0
b37 - d36_37 = 0
b37 - d37_29 - d37_38 = 0
b38 - d28_38 - d37_38 = 0
b38 - d38_39 = 0
b39 - d38_39 = 0
b39 - d39_40 = 0
b40 - d39_40 = 0
b41 - d14_41 = 0
b41 - d41_46 - d41_42 = 0
b42 - d41_42 = 0
b42 - d42_46 - d42_43 = 0
b43 - d42_43 = 0
b43 - d43_44 = 0
b44 - d43_44 = 0
b44 - d44_45 = 0
b45 - d44_45 = 0
b46 - d41_46 - d42_46 = 0
b46 - d46_47 = 0
b47 - d46_47 = 0
b47 - d47_48 = 0
b48 - d47_48 = 0
b49 - d12_49 = 0
b49 - d49_14 = 0
b50 - d10_50 = 0
b50 - d50_12 = 0


\ === header constraints ===
b21 - 64 d20_21 <= 0
b29 - 64 d28_29 <= 0


\ === context constraints ===
b12 - b12.v0 - b12.v1 = 0
b12.v0 - d50_12 = 0
b12.v1 - d11_12 = 0
b14 - b14.v0 - b14.v1 = 0
b14.v0 - d49_14 = 0
b14.v1 - d13_14 = 0
b21 - b21.v0 - b21.v1 = 0
b21.v0 - d20_21 = 0
b21.v1 - d27_21 = 0
b24 - b24.v0 - b24.v1 = 0
b24.v0 - d22_24 = 0
b24.v1 - d23_24 = 0
b26 - b26.v0 - b26.v1 = 0
b26.v0 - d24_26 = 0
b26.v1 - d25_26 = 0
b28 - b28.v0 - b28.v1 = 0
b28.v0 - d20_28 = 0
b28.v1 - d27_28 = 0
b29 - b29.v0 - b29.v1 = 0
b29.v0 - d28_29 = 0
b29.v1 - d37_29 = 0
b32 - b32.v0 - b32.v1 = 0
b32.v0 - d30_32 = 0
b32.v1 - d31_32 = 0
b34 - b34.v0 - b34.v1 = 0
b34.v0 - d32_34 = 0
b34.v1 - d33_34 = 0
b36 - b36.v0 - b36.v1 = 0
b36.v0 - d34_36 = 0
b36.v1 - d35_36 = 0
b38 - b38.v0 - b38.v1 = 0
b38.v0 - d28_38 = 0
b38.v1 - d37_38 = 0
b46 - b46.v0 - b46.v1 = 0
b46.v0 - d41_46 = 0
b46.v1 - d42_46 = 0


\ === inst cache constraints ===
b21 - x21_0.h - x21_0.m = 0
x21_0.m <= 1
b22 - x22_0.h - x22_0.m = 0
x22_0.m <= 1
b22 - x22_1.h - x22_1.m = 0
x22_1.m <= 1
b22 - x22_2.h - x22_2.m = 0
x22_2.m <= 1
b22 - x22_3.h - x22_3.m = 0
x22_3.m <= 1
b22 - x22_4.h - x22_4.m = 0
x22_4.m <= 1
b22 - x22_5.h - x22_5.m = 0
x22_5.m <= 1
b22 - x22_6.h - x22_6.m = 0
x22_6.m <= 1
b23 - x23_0.h - x23_0.m = 0
x23_0.m <= 1
b24 - x24_0.h - x24_0.m = 0
x24_0.m <= 1
b24 - x24_1.h - x24_1.m = 0
x24_1.m <= 1
b24 - x24_2.h - x24_2.m = 0
x24_2.m <= 1
b24 - x24_3.h - x24_3.m = 0
x24_3.m <= 1
b25 - x25_0.h - x25_0.m = 0
x25_0.m <= 1
b25 - x25_1.h - x25_1.m = 0
x25_1.m <= 1
b26 - x26_0.h - x26_0.m = 0
x26_0.m <= 1
b30 - x30_0.h - x30_0.m = 0
x30_0.m <= 1
b30 - x30_1.h - x30_1.m = 0
x30_1.m <= 1
b30 - x30_2.h - x30_2.m = 0
x30_2.m <= 1
b30 - x30_3.h - x30_3.m = 0
x30_3.m <= 1
b30 - x30_4.h - x30_4.m = 0
x30_4.m <= 1
b30 - x30_5.h - x30_5.m = 0
x30_5.m <= 1
b30 - x30_6.h - x30_6.m = 0
x30_6.m <= 1
b31 - x31_0.h - x31_0.m = 0
x31_0.m <= 1
b32 - x32_0.h - x32_0.m = 0
x32_0.m <= 1
b32 - x32_1.h - x32_1.m = 0
x32_1.m <= 1
b32 - x32_2.h - x32_2.m = 0
x32_2.m <= 1
b32 - x32_3.h - x32_3.m = 0
x32_3.m <= 1
b32 - x32_4.h - x32_4.m = 0
x32_4.m <= 1
b34 - x34_0.h - x34_0.m = 0
x34_0.m <= 1
b35 - x35_0.h - x35_0.m = 0
x35_0.m <= 1
b35 - x35_1.h - x35_1.m = 0
x35_1.m <= 1
b36 - x36_0.h - x36_0.m = 0
x36_0.m <= 1
b37 - x37_0.h - x37_0.m = 0
x37_0.m <= 1


\ === data cache constraints ===
b21 - dr21_0.h - dr21_0.m = 0
dr21_0.m <= 1
b22 - dr22_0.h - dr22_0.m = 0
dr22_0.m <= 1
b22 - dr22_1.h - dr22_1.m = 0
dr22_1.m <= 1
b22 - dr22_2.h - dr22_2.m = 0
dr22_2.m <= 1
b22 - dr22_3.h - dr22_3.m = 0
dr22_3.m <= 1
b22 - dr22_4.h - dr22_4.m = 0
dr22_4.m <= 1
b22 - dr22_5.h - dr22_5.m = 0
dr22_5.m <= 1
b22 - dr22_6.h - dr22_6.m = 0
dr22_6.m <= 1
b22 - dr22_7.h - dr22_7.m = 0
dr22_7.m <= 1
b22 - dr22_8.h - dr22_8.m = 0
dr22_8.m <= 1
b22 - dr22_9.h - dr22_9.m = 0
dr22_9.m <= 1
b22 - dr22_10.h - dr22_10.m = 0
dr22_10.m <= 1
b22 - dr22_11.h - dr22_11.m = 0
dr22_11.m <= 1
b22 - dr22_12.h - dr22_12.m = 0
dr22_12.m <= 1
b22 - dr22_13.h - dr22_13.m = 0
dr22_13.m <= 1
b22 - dr22_14.h - dr22_14.m = 0
dr22_14.m <= 1
b22 - dr22_15.h - dr22_15.m = 0
dr22_15.m <= 1
b22 - dr22_16.h - dr22_16.m = 0
dr22_16.m <= 1
b22 - dr22_17.h - dr22_17.m = 0
dr22_17.m <= 1
b22 - dr22_18.h - dr22_18.m = 0
dr22_18.m <= 1
b22 - dr22_19.h - dr22_19.m = 0
dr22_19.m <= 1
b22 - dr22_20.h - dr22_20.m = 0
dr22_20.m <= 1
b23 - dr23_0.h - dr23_0.m = 0
dr23_0.m <= 1
b23 - dr23_1.h - dr23_1.m = 0
dr23_1.m <= 1
b24 - dr24_0.h - dr24_0.m = 0
dr24_0.m <= 1
b24 - dr24_1.h - dr24_1.m = 0
dr24_1.m <= 1
b24 - dr24_2.h - dr24_2.m = 0
dr24_2.m <= 1
b24 - dr24_3.h - dr24_3.m = 0
dr24_3.m <= 1
b24 - dr24_4.h - dr24_4.m = 0
dr24_4.m <= 1
b24 - dr24_5.h - dr24_5.m = 0
dr24_5.m <= 1
b24 - dr24_6.h - dr24_6.m = 0
dr24_6.m <= 1
b24 - dr24_7.h - dr24_7.m = 0
dr24_7.m <= 1
b24 - dr24_8.h - dr24_8.m = 0
dr24_8.m <= 1
b25 - dr25_0.h - dr25_0.m = 0
dr25_0.m <= 1
b25 - dr25_1.h - dr25_1.m = 0
dr25_1.m <= 1
b25 - dr25_2.h - dr25_2.m = 0
dr25_2.m <= 1
b25 - dr25_3.h - dr25_3.m = 0
dr25_3.m <= 1
b25 - dr25_4.h - dr25_4.m = 0
dr25_4.m <= 1
b25 - dr25_5.h - dr25_5.m = 0
dr25_5.m <= 1
b25 - dr25_6.h - dr25_6.m = 0
dr25_6.m <= 1
b26 - dr26_0.h - dr26_0.m = 0
dr26_0.m <= 1
b27 - dr27_0.h - dr27_0.m = 0
dr27_0.m <= 1
b29 - dr29_0.h - dr29_0.m = 0
dr29_0.m <= 1
b30 - dr30_0.h - dr30_0.m = 0
dr30_0.m <= 1
b30 - dr30_1.h - dr30_1.m = 0
dr30_1.m <= 1
b30 - dr30_2.h - dr30_2.m = 0
dr30_2.m <= 1
b30 - dr30_3.h - dr30_3.m = 0
dr30_3.m <= 1
b30 - dr30_4.h - dr30_4.m = 0
dr30_4.m <= 1
b30 - dr30_5.h - dr30_5.m = 0
dr30_5.m <= 1
b30 - dr30_6.h - dr30_6.m = 0
dr30_6.m <= 1
b30 - dr30_7.h - dr30_7.m = 0
dr30_7.m <= 1
b30 - dr30_8.h - dr30_8.m = 0
dr30_8.m <= 1
b30 - dr30_9.h - dr30_9.m = 0
dr30_9.m <= 1
b30 - dr30_10.h - dr30_10.m = 0
dr30_10.m <= 1
b30 - dr30_11.h - dr30_11.m = 0
dr30_11.m <= 1
b30 - dr30_12.h - dr30_12.m = 0
dr30_12.m <= 1
b30 - dr30_13.h - dr30_13.m = 0
dr30_13.m <= 1
b30 - dr30_14.h - dr30_14.m = 0
dr30_14.m <= 1
b30 - dr30_15.h - dr30_15.m = 0
dr30_15.m <= 1
b30 - dr30_16.h - dr30_16.m = 0
dr30_16.m <= 1
b30 - dr30_17.h - dr30_17.m = 0
dr30_17.m <= 1
b30 - dr30_18.h - dr30_18.m = 0
dr30_18.m <= 1
b30 - dr30_19.h - dr30_19.m = 0
dr30_19.m <= 1
b31 - dr31_0.h - dr31_0.m = 0
dr31_0.m <= 1
b31 - dr31_1.h - dr31_1.m = 0
dr31_1.m <= 1
b32 - dr32_0.h - dr32_0.m = 0
dr32_0.m <= 1
b32 - dr32_1.h - dr32_1.m = 0
dr32_1.m <= 1
b32 - dr32_2.h - dr32_2.m = 0
dr32_2.m <= 1
b32 - dr32_3.h - dr32_3.m = 0
dr32_3.m <= 1
b32 - dr32_4.h - dr32_4.m = 0
dr32_4.m <= 1
b32 - dr32_5.h - dr32_5.m = 0
dr32_5.m <= 1
b32 - dr32_6.h - dr32_6.m = 0
dr32_6.m <= 1
b32 - dr32_7.h - dr32_7.m = 0
dr32_7.m <= 1
b32 - dr32_8.h - dr32_8.m = 0
dr32_8.m <= 1
b32 - dr32_9.h - dr32_9.m = 0
dr32_9.m <= 1
b33 - dr33_0.h - dr33_0.m = 0
dr33_0.m <= 1
b34 - dr34_0.h - dr34_0.m = 0
dr34_0.m <= 1
b34 - dr34_1.h - dr34_1.m = 0
dr34_1.m <= 1
b34 - dr34_2.h - dr34_2.m = 0
dr34_2.m <= 1
b35 - dr35_0.h - dr35_0.m = 0
dr35_0.m <= 1
b35 - dr35_1.h - dr35_1.m = 0
dr35_1.m <= 1
b35 - dr35_2.h - dr35_2.m = 0
dr35_2.m <= 1
b35 - dr35_3.h - dr35_3.m = 0
dr35_3.m <= 1
b35 - dr35_4.h - dr35_4.m = 0
dr35_4.m <= 1
b35 - dr35_5.h - dr35_5.m = 0
dr35_5.m <= 1
b35 - dr35_6.h - dr35_6.m = 0
dr35_6.m <= 1
b36 - dr36_0.h - dr36_0.m = 0
dr36_0.m <= 1
b37 - dr37_0.h - dr37_0.m = 0
dr37_0.m <= 1


Generals


b0
b1
b2
b3
b4
b5
b6
b7
b8
b9
b10
b11
b12
b12.v0
b12.v1
b13
b14
b14.v0
b14.v1
b15
b16
b17
b18
b19
b20
b21
b21.v0
b21.v1
b22
b23
b24
b24.v0
b24.v1
b25
b26
b26.v0
b26.v1
b27
b28
b28.v0
b28.v1
b29
b29.v0
b29.v1
b30
b31
b32
b32.v0
b32.v1
b33
b34
b34.v0
b34.v1
b35
b36
b36.v0
b36.v1
b37
b38
b38.v0
b38.v1
b39
b40
b41
b42
b43
b44
b45
b46
b46.v0
b46.v1
b47
b48
b49
b50
d0_1
d1_2
d2_3
d2_6
d3_4
d4_5
d6_7
d6_10
d7_8
d8_9
d10_11
d10_50
d11_12
d12_13
d12_49
d13_14
d14_15
d14_41
d15_16
d15_20
d16_17
d17_18
d18_19
d20_21
d20_28
d21_22
d22_23
d22_24
d23_24
d24_25
d24_26
d25_26
d26_27
d27_21
d27_28
d28_29
d28_38
d29_30
d30_31
d30_32
d31_32
d32_33
d32_34
d33_34
d34_35
d34_36
d35_36
d36_37
d37_29
d37_38
d38_39
d39_40
d41_42
d41_46
d42_43
d42_46
d43_44
d44_45
d46_47
d47_48
d49_14
d50_12
dSta_0
dr21_0.h
dr21_0.m
dr22_0.h
dr22_0.m
dr22_1.h
dr22_1.m
dr22_2.h
dr22_2.m
dr22_3.h
dr22_3.m
dr22_4.h
dr22_4.m
dr22_5.h
dr22_5.m
dr22_6.h
dr22_6.m
dr22_7.h
dr22_7.m
dr22_8.h
dr22_8.m
dr22_9.h
dr22_9.m
dr22_10.h
dr22_10.m
dr22_11.h
dr22_11.m
dr22_12.h
dr22_12.m
dr22_13.h
dr22_13.m
dr22_14.h
dr22_14.m
dr22_15.h
dr22_15.m
dr22_16.h
dr22_16.m
dr22_17.h
dr22_17.m
dr22_18.h
dr22_18.m
dr22_19.h
dr22_19.m
dr22_20.h
dr22_20.m
dr23_0.h
dr23_0.m
dr23_1.h
dr23_1.m
dr24_0.h
dr24_0.m
dr24_1.h
dr24_1.m
dr24_2.h
dr24_2.m
dr24_3.h
dr24_3.m
dr24_4.h
dr24_4.m
dr24_5.h
dr24_5.m
dr24_6.h
dr24_6.m
dr24_7.h
dr24_7.m
dr24_8.h
dr24_8.m
dr25_0.h
dr25_0.m
dr25_1.h
dr25_1.m
dr25_2.h
dr25_2.m
dr25_3.h
dr25_3.m
dr25_4.h
dr25_4.m
dr25_5.h
dr25_5.m
dr25_6.h
dr25_6.m
dr26_0.h
dr26_0.m
dr27_0.h
dr27_0.m
dr29_0.h
dr29_0.m
dr30_0.h
dr30_0.m
dr30_1.h
dr30_1.m
dr30_2.h
dr30_2.m
dr30_3.h
dr30_3.m
dr30_4.h
dr30_4.m
dr30_5.h
dr30_5.m
dr30_6.h
dr30_6.m
dr30_7.h
dr30_7.m
dr30_8.h
dr30_8.m
dr30_9.h
dr30_9.m
dr30_10.h
dr30_10.m
dr30_11.h
dr30_11.m
dr30_12.h
dr30_12.m
dr30_13.h
dr30_13.m
dr30_14.h
dr30_14.m
dr30_15.h
dr30_15.m
dr30_16.h
dr30_16.m
dr30_17.h
dr30_17.m
dr30_18.h
dr30_18.m
dr30_19.h
dr30_19.m
dr31_0.h
dr31_0.m
dr31_1.h
dr31_1.m
dr32_0.h
dr32_0.m
dr32_1.h
dr32_1.m
dr32_2.h
dr32_2.m
dr32_3.h
dr32_3.m
dr32_4.h
dr32_4.m
dr32_5.h
dr32_5.m
dr32_6.h
dr32_6.m
dr32_7.h
dr32_7.m
dr32_8.h
dr32_8.m
dr32_9.h
dr32_9.m
dr33_0.h
dr33_0.m
dr34_0.h
dr34_0.m
dr34_1.h
dr34_1.m
dr34_2.h
dr34_2.m
dr35_0.h
dr35_0.m
dr35_1.h
dr35_1.m
dr35_2.h
dr35_2.m
dr35_3.h
dr35_3.m
dr35_4.h
dr35_4.m
dr35_5.h
dr35_5.m
dr35_6.h
dr35_6.m
dr36_0.h
dr36_0.m
dr37_0.h
dr37_0.m
x21_0.h
x21_0.m
x22_0.h
x22_0.m
x22_1.h
x22_1.m
x22_2.h
x22_2.m
x22_3.h
x22_3.m
x22_4.h
x22_4.m
x22_5.h
x22_5.m
x22_6.h
x22_6.m
x23_0.h
x23_0.m
x24_0.h
x24_0.m
x24_1.h
x24_1.m
x24_2.h
x24_2.m
x24_3.h
x24_3.m
x25_0.h
x25_0.m
x25_1.h
x25_1.m
x26_0.h
x26_0.m
x30_0.h
x30_0.m
x30_1.h
x30_1.m
x30_2.h
x30_2.m
x30_3.h
x30_3.m
x30_4.h
x30_4.m
x30_5.h
x30_5.m
x30_6.h
x30_6.m
x31_0.h
x31_0.m
x32_0.h
x32_0.m
x32_1.h
x32_1.m
x32_2.h
x32_2.m
x32_3.h
x32_3.m
x32_4.h
x32_4.m
x34_0.h
x34_0.m
x35_0.h
x35_0.m
x35_1.h
x35_1.m
x36_0.h
x36_0.m
x37_0.h
x37_0.m


End
\ total cons: 415    total vars: 382
